networks/zoo_129_833/zoo_129_833.txt
Number of groups: 88.000000000000114
Flow 19: {56 61} {61 60} {60 59} {59 124} 
Flow 25: {2 1} {1 3} {3 8} {8 73} 
Flow 87: {4 8} {8 54} 
Flow 103: {5 8} {8 23} {23 16} {16 81} 
Flow 108: {9 29} 
Flow 112: {5 4} {4 57} {57 122} 
Flow 122: {6 8} 
Flow 145: {53 51} {51 116} 
Flow 180: {12 11} 
Flow 211: {14 13} {13 23} {23 21} {21 86} 
Flow 217: {15 37} 
Flow 223: {16 23} {23 20} 
Flow 230: {17 23} 
Flow 246: {18 23} {23 63} 
Flow 259: {19 23} {23 62} {62 127} 
Flow 261: {20 23} 
Flow 276: {21 20} {20 85} 
Flow 302: {22 21} {21 23} 
Flow 311: {1 7} {7 72} 
Flow 316: {11 12} {12 77} 
Flow 317: {23 13} {13 78} 
Flow 321: {23 17} {17 82} 
Flow 322: {23 18} {18 83} 
Flow 323: {23 19} {19 84} 
Flow 331: {37 31} {31 96} 
Flow 338: {23 38} {38 103} 
Flow 339: {37 39} {39 104} 
Flow 341: {37 41} {41 106} 
Flow 344: {37 44} {44 109} 
Flow 345: {23 45} {45 110} 
Flow 346: {8 49} {49 46} {46 111} 
Flow 347: {8 47} {47 112} 
Flow 355: {3 56} {56 121} 
Flow 364: {24 23} {23 8} {8 3} {3 1} {1 66} 
Flow 374: {25 26} {26 9} {9 8} {8 5} 
Flow 402: {26 23} {23 24} {24 89} 
Flow 406: {28 32} {32 34} {34 99} 
Flow 422: {27 9} 
Flow 440: {29 9} {9 62} 
Flow 442: {29 23} {23 64} 
Flow 450: {30 37} {37 102} 
Flow 465: {31 37} 
Flow 467: {1 2} {2 67} 
Flow 469: {8 4} {4 69} 
Flow 477: {13 14} {14 79} 
Flow 478: {37 15} {15 80} 
Flow 485: {9 26} {26 25} {25 90} 
Flow 489: {32 33} {33 98} 
Flow 491: {32 35} {35 100} 
Flow 492: {32 36} {36 101} 
Flow 495: {37 42} {42 107} 
Flow 498: {8 48} {48 113} 
Flow 499: {49 114} 
Flow 500: {11 50} {50 115} 
Flow 502: {53 52} {52 117} 
Flow 521: {33 32} {32 97} 
Flow 527: {35 32} 
Flow 531: {36 32} {32 28} {28 9} 
Flow 539: {40 37} {37 23} 
Flow 559: {41 37} 
Flow 565: {42 37} 
Flow 569: {43 37} 
Flow 576: {44 37} 
Flow 586: {45 20} {20 21} 
Flow 589: {45 23} 
Flow 602: {47 8} {8 6} {6 71} 
Flow 617: {23 37} {37 40} {40 105} 
Flow 618: {37 43} {43 108} 
Flow 619: {47 54} {54 53} {53 118} 
Flow 640: {48 8} {8 9} {9 28} {28 93} 
Flow 655: {49 8} 
Flow 667: {50 11} {11 8} {8 57} {57 61} {61 126} 
Flow 672: {51 53} {53 54} {54 8} {8 11} {11 76} 
Flow 684: {52 53} 
Flow 731: {23 26} {26 91} 
Flow 748: {55 64} {64 129} 
Flow 768: {61 56} {56 3} {3 68} 
Flow 769: {60 61} {61 57} {57 4} {4 5} {5 70} 
Flow 772: {9 10} {10 75} 
Flow 788: {59 58} {58 55} {55 63} {63 128} 
Flow 792: {57 8} 
Flow 794: {62 9} {9 74} 
Flow 796: {62 23} {23 55} {55 120} 
Flow 810: {63 23} {23 29} {29 94} 
Flow 819: {63 55} {55 58} {58 123} 
Flow 821: {58 59} {59 60} {60 125} 
Flow 827: {64 23} {23 88} 
Flow 828: {65 55} {55 23} 
Time taken running everything: 21 seconds
